NAME: I11522-n20-k5
COMMENT : (Fake et al, No of trucks: 5, Optimal value: )
TYPE : CVRP
DIMENSION : 20
EDGE_WEIGHT_TYPE : EUC_2D
CAPACITY : 23
NODE_COORD_SECTION
1 37 392
2 994 46
3 631 233
4 517 17
5 848 539
6 260 234
7 913 817
8 362 291
9 321 251
10 597 727
11 95 794
12 864 851
13 32 8
14 568 480
15 642 369
16 502 319
17 407 2
18 15 158
19 516 545
20 774 608
DEMAND_SECTION
1 0
2 2
3 2
4 9
5 8
6 8
7 9
8 7
9 3
10 7
11 3
12 7
13 9
14 5
15 2
16 4
17 1
18 1
19 5
20 8
DEPOT_SECTION
 1
 -1
 EOF 